200 100
7 110
98 92
156 2
4 11
182 190
168 140
122 109
81 93
12 23
55 67
113 128
181 200
101 104
63 57
32 66
33 18
144 150
121 115
1 29
34 69
141 148
24 50
192 199
162 173
82 100
112 131
123 125
160 174
75 80
133 136
180 186
47 65
78 90
154 169
95 135
155 170
153 163
193 198
21 30
77 105
43 60
114 120
39 59
179 197
97 108
89 118
149 189
19 36
45 49
126 139
86 117
5 17
178 185
8 38
53 70
79 111
26 58
40 68
158 177
54 99
35 48
85 96
73 102
161 172
145 157
130 138
44 76
6 20
27 51
88 103
91 119
94 106
3 37
71 107
116 159
184 196
124 147
9 46
10 28
61 127
72 129
14 42
83 87
74 84
13 25
31 62
132 166
164 191
134 175
143 176
183 194
165 195
15 64
151 188
52 137
142 187
16 56
22 152
41 146
167 171